Problem:    
Rows:       105
Columns:    45 (34 integer, 34 binary)
Non-zeros:  302
Status:     INTEGER OPTIMAL
Objective:  value = 43.81838 (MINimum)

   No.   Row name        Activity     Lower bound   Upper bound
------ ------------    ------------- ------------- -------------
     1 r.5                   43.8184             0               
     2 r.6                  -8.84934      -460.283               
     3 r.7                   543.818             0               
     4 r.8                  -462.504      -480.498               
     5 r.9                   43.8184             0               
     6 r.10                  19.9799      -471.171               
     7 r.11                  543.818             0               
     8 r.12                 -482.005      -489.522               
     9 r.13                  43.8184             0               
    10 r.14                 -48.5664      -480.891               
    11 r.15                  543.818             0               
    12 r.16                 -456.182      -493.678               
    13 r.17                  543.818             0               
    14 r.18                 -456.182      -476.161               
    15 r.19                  43.8184             0               
    16 r.20                  7.51688      -488.407               
    17 r.21                  543.818             0               
    18 r.22                 -498.267      -498.267               
    19 r.23                  43.8184             0               
    20 r.24                  1.73306      -497.829               
    21 r.25                        1             1             = 
    22 r.26                        1             1             = 
    23 r.27                        1             1             = 
    24 r.28                        1             1             = 
    25 r.29                        1             1             = 
    26 r.30                  28.8292       28.8292               
    27 r.31                 -28.8292      -460.283               
    28 r.32                  480.498        10.478               
    29 r.33                 -480.498      -480.498               
    30 r.34                  460.283       19.1089               
    31 r.35                 -460.283      -460.283               
    32 r.36                   6.3219        6.3219               
    33 r.37                  -6.3219      -480.498               
    34 r.38                  52.6677       23.8385               
    35 r.39                 -52.6677      -460.283               
    36 r.40                   470.02       11.5926               
    37 r.41                  -470.02      -480.498               
    38 r.42                 -10.5824      -457.884               
    39 r.43                 -464.237      -474.715               
    40 r.44                 -10.5824      -457.884               
    41 r.45                 -464.237      -474.715               
    42 r.46                  471.171        39.717               
    43 r.47                 -471.171      -471.171               
    44 r.48                  19.5016       19.5016               
    45 r.49                 -19.5016      -489.522               
    46 r.50                  431.454       19.1089               
    47 r.51                 -431.454      -471.171               
    48 r.52                  25.8235        6.3219               
    49 r.53                 -25.8235      -489.522               
    50 r.54                  23.8385       23.8385               
    51 r.55                 -23.8385      -471.171               
    52 r.56                  489.522       11.5926               
    53 r.57                 -489.522      -489.522               
    54 r.58                  18.2468      -468.772               
    55 r.59                 -483.738      -483.738               
    56 r.60                  18.2468      -468.772               
    57 r.61                 -483.738      -483.738               
    58 r.62                   39.717        39.717               
    59 r.63                  -39.717      -480.891               
    60 r.64                  493.678       19.5016               
    61 r.65                 -493.678      -493.678               
    62 r.66                  68.5462       28.8292               
    63 r.67                 -68.5462      -480.891               
    64 r.68                  474.176        10.478               
    65 r.69                 -474.176      -493.678               
    66 r.70                  92.3847       23.8385               
    67 r.71                 -92.3847      -480.891               
    68 r.72                  463.698       11.5926               
    69 r.73                 -463.698      -493.678               
    70 r.74                 -50.2994      -478.493               
    71 r.75                 -457.915      -487.894               
    72 r.76                 -50.2994      -478.493               
    73 r.77                 -457.915      -487.894               
    74 r.78                  447.332        39.717               
    75 r.79                 -447.332      -476.161               
    76 r.80                  29.9796       19.5016               
    77 r.81                 -29.9796      -488.407               
    78 r.82                  476.161       28.8292               
    79 r.83                 -476.161      -476.161               
    80 r.84                   10.478        10.478               
    81 r.85                  -10.478      -488.407               
    82 r.86                  407.615       19.1089               
    83 r.87                 -407.615      -476.161               
    84 r.88                  36.3015        6.3219               
    85 r.89                 -36.3015      -488.407               
    86 r.90                 -457.915      -473.763               
    87 r.91                  5.78382      -482.624               
    88 r.92                 -457.915      -473.763               
    89 r.93                  5.78382      -482.624               
    90 r.94                 -10.5824      -457.884               
    91 r.95                 -464.237      -474.715               
    92 r.96                 -10.5824      -457.884               
    93 r.97                 -464.237      -474.715               
    94 r.98                  18.2468      -468.772               
    95 r.99                 -483.738      -483.738               
    96 r.100                 18.2468      -468.772               
    97 r.101                -483.738      -483.738               
    98 r.102                -50.2994      -478.493               
    99 r.103                -457.915      -487.894               
   100 r.104                -50.2994      -478.493               
   101 r.105                -457.915      -487.894               
   102 r.106                -457.915      -473.763               
   103 r.107                 5.78382      -482.624               
   104 r.108                -457.915      -473.763               
   105 r.109                 5.78382      -482.624               

   No. Column name       Activity     Lower bound   Upper bound
------ ------------    ------------- ------------- -------------
     1 tt                    43.8184             0               
     2 s_1_1        *              0             0             1 
     3 t_1_1                 52.6677             0               
     4 s_2_1        *              1             0             1 
     5 t_2_1                  6.3219             0               
     6 s_1_2        *              0             0             1 
     7 t_1_2                 23.8385             0               
     8 s_2_2        *              1             0             1 
     9 t_2_2                 25.8235             0               
    10 s_1_3        *              0             0             1 
    11 t_1_3                 92.3847             0               
    12 s_2_3        *              1             0             1 
    13 t_2_3                       0             0               
    14 s_1_4        *              1             0             1 
    15 t_1_4                       0             0               
    16 s_2_4        *              0             0             1 
    17 t_2_4                 36.3015             0               
    18 s_1_5        *              1             0             1 
    19 t_1_5                 42.0853             0               
    20 s_2_5        *              0             0             1 
    21 t_2_5                 42.0853             0               
    22 u_1_1_2      *              0             0             1 
    23 u_2_1_2      *              1             0             1 
    24 u_1_1_3      *              1             0             1 
    25 u_2_1_3      *              0             0             1 
    26 u_1_1_4      *              0             0             1 
    27 u_2_1_4      *              1             0             1 
    28 u_1_2_1      *              1             0             1 
    29 u_2_2_1      *              0             0             1 
    30 u_1_2_3      *              1             0             1 
    31 u_2_2_3      *              0             0             1 
    32 u_1_2_4      *              0             0             1 
    33 u_2_2_4      *              1             0             1 
    34 u_1_3_1      *              0             0             1 
    35 u_2_3_1      *              1             0             1 
    36 u_1_3_2      *              0             0             1 
    37 u_2_3_2      *              1             0             1 
    38 u_1_3_4      *              0             0             1 
    39 u_2_3_4      *              1             0             1 
    40 u_1_4_1      *              1             0             1 
    41 u_2_4_1      *              0             0             1 
    42 u_1_4_2      *              1             0             1 
    43 u_2_4_2      *              0             0             1 
    44 u_1_4_3      *              1             0             1 
    45 u_2_4_3      *              0             0             1 

Integer feasibility conditions:

KKT.PE: max.abs.err = 1.14e-13 on row 8
        max.rel.err = 1.08e-16 on row 8
        High quality

KKT.PB: max.abs.err = 1.71e-13 on row 55
        max.rel.err = 3.52e-16 on row 55
        High quality

End of output
